\* antennalocation *\
Minimize
obj_func: 4813 x_(0,_0) + 6813 x_(0,_1) + 4938 x_(0,_2) + 9026 x_(1,_0)
 + 9673 x_(1,_1) + 4451 x_(1,_2) + 8126 x_(2,_0) + 5760 x_(2,_1)
 + 6112 x_(2,_2)
Subject To
2: z_(0,_0,_0) + z_(0,_0,_1) + z_(0,_0,_2) + z_(0,_0,_3) + z_(0,_0,_4)
 + z_(0,_1,_0) + z_(0,_1,_1) + z_(0,_1,_2) + z_(0,_1,_3) + z_(0,_1,_4)
 + z_(1,_0,_0) + z_(1,_0,_1) + z_(1,_0,_2) + z_(1,_0,_3) + z_(1,_0,_4)
 + z_(1,_1,_0) + z_(1,_1,_1) + z_(1,_1,_2) + z_(1,_1,_3) + z_(1,_1,_4) = 1
Binaries
x_(0,_0)
x_(0,_1)
x_(0,_2)
x_(1,_0)
x_(1,_1)
x_(1,_2)
x_(2,_0)
x_(2,_1)
x_(2,_2)
z_(0,_0,_0)
z_(0,_0,_1)
z_(0,_0,_2)
z_(0,_0,_3)
z_(0,_0,_4)
z_(0,_1,_0)
z_(0,_1,_1)
z_(0,_1,_2)
z_(0,_1,_3)
z_(0,_1,_4)
z_(1,_0,_0)
z_(1,_0,_1)
z_(1,_0,_2)
z_(1,_0,_3)
z_(1,_0,_4)
z_(1,_1,_0)
z_(1,_1,_1)
z_(1,_1,_2)
z_(1,_1,_3)
z_(1,_1,_4)
End
